(set-logic ALL)
(declare-const GEN1 Int)
(declare-const GEN2 Int)
(declare-const GEN3 Int)
(declare-const GEN4 Int)
(declare-const GEN5 Int)
(declare-const BAV6 Bool)
(declare-const BAV7 Bool)
(declare-const BAV8 Bool)
(declare-const BAV9 Bool)
(declare-fun P (Int Int) Bool)
(declare-fun Q (Int) Bool)
(assert (forall ((x Int)) (=> (and (<= GEN1 x) (<= x (ite (P GEN2 GEN3) GEN4 GEN5))) (Q x))))
(assert (= BAV6 (forall ((x Int)) (=> (and (<= GEN1 x) (<= x (ite (P GEN2 GEN3) GEN4 GEN5))) (Q x)))))
(assert (= BAV7 (forall ((x Int)) (and (<= GEN1 x) (<= x (ite (P GEN2 GEN3) GEN4 GEN5))))))
(assert (= BAV8 (forall ((x Int)) (<= GEN1 x))))
(assert (= BAV9 (forall ((x Int)) (<= x (ite (P GEN2 GEN3) GEN4 GEN5)))))
(check-sat)
(get-model)